
Gurobi 10.0.1 (win64) logging started Sat May 20 21:10:06 2023

Set parameter LogFile to value "logFiles/N-1L-B/N-1L-13U-15F-23V-180D-basic-heuristic.log"
Gurobi Optimizer version 10.0.1 build v10.0.1rc0 (win64)

CPU model: Intel(R) Core(TM) i7-10700 CPU @ 2.90GHz, instruction set [SSE2|AVX|AVX2]
Thread count: 8 physical cores, 16 logical processors, using up to 16 threads

Optimize a model with 127458 rows, 1599984 columns and 10762372 nonzeros
Model fingerprint: 0x9be252e0
Variable types: 2535 continuous, 1597449 integer (1597449 binary)
Coefficient statistics:
  Matrix range     [1e+00, 2e+05]
  Objective range  [4e+01, 3e+07]
  Bounds range     [1e+00, 1e+00]
  RHS range        [1e+00, 2e+06]
Presolve removed 70891 rows and 43544 columns (presolve time = 5s) ...
Presolve removed 73019 rows and 100771 columns (presolve time = 10s) ...
Presolve removed 73019 rows and 100771 columns (presolve time = 15s) ...
Presolve removed 72849 rows and 100601 columns
Presolve time: 18.57s
Presolved: 54609 rows, 1499383 columns, 7886814 nonzeros
Variable types: 2577 continuous, 1496806 integer (1496752 binary)
Deterministic concurrent LP optimizer: primal simplex, dual simplex, and barrier
Showing barrier log only...

Root barrier log...

Ordering time: 1.66s

Barrier statistics:
 AA' NZ     : 3.873e+06
 Factor NZ  : 1.596e+07 (roughly 800 MB of memory)
 Factor Ops : 3.613e+10 (less than 1 second per iteration)
 Threads    : 5

                  Objective                Residual
Iter       Primal          Dual         Primal    Dual     Compl     Time
   0  -6.81601347e+16  8.37605726e+12  7.33e+09 5.96e+05  1.84e+11    33s
   1  -1.70980524e+16  1.12705064e+13  1.84e+09 4.99e+05  4.65e+10    35s
   2  -2.76599037e+15  9.82997902e+12  3.01e+08 1.59e+04  7.65e+09    37s
   3  -4.50458081e+13  6.30106155e+12  4.89e+06 7.18e+02  1.28e+08    39s
   4  -1.23563400e+13  2.09785664e+12  1.34e+06 2.94e+01  3.53e+07    41s
   5  -1.21947364e+12  1.55222678e+12  1.32e+05 5.73e+00  3.95e+06    43s
   6  -9.02070029e+11  1.50787698e+12  9.76e+04 5.26e+00  3.03e+06    45s
   7  -5.84934389e+11  1.37471153e+12  6.34e+04 3.83e+00  2.07e+06    47s
   8  -3.00144858e+11  1.08290727e+12  3.26e+04 5.71e+00  1.14e+06    48s
   9  -1.38253703e+11  8.18846069e+11  1.52e+04 5.89e+00  6.11e+05    50s
  10  -4.53613471e+10  3.64116508e+11  5.16e+03 1.66e+00  2.16e+05    52s
  11  -1.03695315e+10  2.15765430e+11  1.38e+03 8.63e-01  9.38e+04    54s
  12  -1.51352374e+09  8.34966753e+10  4.19e+02 2.66e-01  3.28e+04    56s
  13  -1.34757776e+08  5.36552147e+10  2.70e+02 1.60e-01  2.05e+04    58s
  14   8.11527716e+08  3.76466761e+10  1.68e+02 1.05e-01  1.38e+04    60s
  15   1.55400907e+09  2.77916972e+10  8.85e+01 7.48e-02  9.56e+03    62s
  16   1.85326576e+09  2.09385512e+10  5.69e+01 5.50e-02  6.87e+03    65s
  17   1.93465283e+09  1.70063742e+10  4.85e+01 4.24e-02  5.48e+03    66s
  18   2.01818441e+09  1.47708779e+10  4.02e+01 3.59e-02  4.64e+03    69s
  19   2.15597378e+09  1.09106158e+10  2.64e+01 2.42e-02  3.19e+03    71s
  20   2.21519825e+09  8.89295146e+09  2.06e+01 1.87e-02  2.45e+03    74s
  21   2.31392129e+09  7.16979263e+09  1.06e+01 1.37e-02  1.75e+03    78s
  22   2.36023617e+09  6.34047164e+09  6.96e+00 1.12e-02  1.42e+03    80s
  23   2.37304992e+09  5.70190863e+09  5.19e+00 9.40e-03  1.18e+03    83s
  24   2.40512899e+09  4.65353779e+09  3.00e+00 6.11e-03  7.86e+02    86s
  25   2.41828862e+09  3.73469166e+09  2.25e+00 3.21e-03  4.59e+02    89s
  26   2.43832067e+09  3.27410264e+09  1.18e+00 1.91e-03  2.87e+02    92s
  27   2.44703336e+09  2.89792716e+09  8.10e-01 8.64e-04  1.54e+02    96s
  28   2.45449185e+09  2.80035330e+09  4.92e-01 6.39e-04  1.17e+02    99s
  29   2.45519863e+09  2.77232146e+09  4.69e-01 5.88e-04  1.07e+02   101s
  30   2.45701914e+09  2.72848250e+09  4.15e-01 4.87e-04  9.18e+01   103s
  31   2.46171779e+09  2.69504137e+09  3.16e-01 4.24e-04  7.87e+01   105s
  32   2.46508786e+09  2.63749365e+09  2.77e-01 3.10e-04  5.81e+01   108s
  33   2.47017396e+09  2.60698344e+09  1.92e-01 2.56e-04  4.60e+01   111s
  34   2.47461562e+09  2.59030778e+09  1.28e-01 2.18e-04  3.88e+01   114s
  35   2.47804565e+09  2.58211662e+09  9.63e-02 2.02e-04  3.49e+01   118s
  36   2.48097549e+09  2.56233789e+09  7.83e-02 1.62e-04  2.73e+01   121s
  37   2.48311442e+09  2.54904878e+09  6.64e-02 1.30e-04  2.21e+01   124s
  38   2.48498734e+09  2.54498212e+09  5.61e-02 1.20e-04  2.01e+01   128s
  39   2.48625794e+09  2.53858743e+09  4.97e-02 1.07e-04  1.75e+01   131s
  40   2.48696671e+09  2.53621801e+09  4.61e-02 1.01e-04  1.65e+01   134s
  41   2.48961370e+09  2.52941872e+09  3.38e-02 8.45e-05  1.33e+01   137s
  42   2.49005761e+09  2.52554377e+09  3.23e-02 7.36e-05  1.19e+01   141s
  43   2.49191560e+09  2.52307696e+09  2.62e-02 6.70e-05  1.04e+01   143s
  44   2.49377113e+09  2.52013742e+09  2.01e-02 5.83e-05  8.83e+00   146s
  45   2.49634736e+09  2.51509544e+09  1.17e-02 4.35e-05  6.27e+00   149s
  46   2.49814954e+09  2.51083919e+09  7.23e-03 3.01e-05  4.25e+00   152s
  47   2.49942891e+09  2.50786849e+09  4.76e-03 1.98e-05  2.83e+00   155s
  48   2.50058739e+09  2.50636950e+09  2.73e-03 1.46e-05  1.93e+00   159s
  49   2.50100786e+09  2.50494695e+09  2.09e-03 9.22e-06  1.32e+00   162s
  50   2.50135928e+09  2.50409926e+09  1.55e-03 6.32e-06  9.18e-01   164s
  51   2.50147767e+09  2.50389034e+09  1.37e-03 5.55e-06  8.08e-01   166s
  52   2.50167601e+09  2.50366033e+09  1.08e-03 4.64e-06  6.65e-01   168s
  53   2.50201792e+09  2.50314947e+09  5.89e-04 2.60e-06  3.79e-01   170s
  54   2.50220337e+09  2.50284448e+09  3.47e-04 1.38e-06  2.15e-01   173s
  55   2.50228575e+09  2.50268861e+09  2.36e-04 7.83e-07  1.35e-01   176s
  56   2.50233490e+09  2.50265924e+09  1.72e-04 6.84e-07  1.09e-01   179s
  57   2.50241484e+09  2.50260319e+09  6.37e-05 4.77e-07  6.31e-02   181s
  58   2.50243447e+09  2.50254190e+09  3.86e-05 2.56e-07  3.60e-02   183s
  59   2.50245221e+09  2.50251269e+09  1.65e-05 1.53e-07  2.02e-02   185s
  60   2.50245884e+09  2.50250638e+09  8.42e-06 1.30e-07  1.59e-02   187s
  61   2.50246291e+09  2.50248468e+09  3.99e-06 7.37e-08  7.28e-03   189s
  62   2.50246587e+09  2.50247239e+09  2.90e-06 1.07e-07  2.18e-03   190s
  63   2.50246653e+09  2.50246939e+09  3.09e-06 1.11e-07  9.59e-04   192s
  64   2.50246679e+09  2.50246842e+09  5.05e-07 1.23e-07  5.43e-04   195s
  65   2.50246683e+09  2.50246712e+09  2.21e-07 1.32e-07  9.79e-05   197s
  66   2.50246686e+09  2.50246694e+09  5.43e-08 1.58e-07  2.75e-05   200s
  67   2.50246688e+09  2.50246688e+09  6.05e-09 1.29e-07  9.50e-07   203s
  68   2.50246688e+09  2.50246688e+09  4.02e-07 1.19e-07  1.06e-10   205s

Barrier solved model in 68 iterations and 205.19 seconds (109.41 work units)
Optimal objective 2.50246688e+09


Root crossover log...

   46028 DPushes remaining with DInf 0.0000000e+00               206s
      25 DPushes remaining with DInf 0.0000000e+00               211s
       0 DPushes remaining with DInf 0.0000000e+00               213s

    1552 PPushes remaining with PInf 2.1606014e-04               213s
       0 PPushes remaining with PInf 0.0000000e+00               213s

  Push phase complete: Pinf 0.0000000e+00, Dinf 1.0802913e+02    213s


Root simplex log...

Iteration    Objective       Primal Inf.    Dual Inf.      Time
   47543    2.5024669e+09   0.000000e+00   1.080291e+02    213s
   47630    2.5024669e+09   0.000000e+00   0.000000e+00    214s
Concurrent spin time: 0.05s

Solved with barrier
   47630    2.5024669e+09   0.000000e+00   0.000000e+00    215s

Root relaxation: objective 2.502467e+09, 47630 iterations, 192.51 seconds (69.25 work units)
Total elapsed time = 221.14s

    Nodes    |    Current Node    |     Objective Bounds      |     Work
 Expl Unexpl |  Obj  Depth IntInf | Incumbent    BestBd   Gap | It/Node Time

     0     0 2.5025e+09    0  820          - 2.5025e+09      -     -  225s
     0     0 2.5025e+09    0  776          - 2.5025e+09      -     -  295s
     0     0 2.5025e+09    0  811          - 2.5025e+09      -     -  583s
     0     0 2.5025e+09    0  783          - 2.5025e+09      -     -  606s
     0     0 2.5025e+09    0  758          - 2.5025e+09      -     -  633s
     0     0 2.5025e+09    0  758          - 2.5025e+09      -     -  637s
     0     0 2.5025e+09    0  766          - 2.5025e+09      -     -  668s
H    0     0                    2.400562e+09 2.5025e+09  4.24%     -  749s
     0     0 2.5021e+09    0  783 2.4006e+09 2.5021e+09  4.23%     - 1958s
     0     0 2.5021e+09    0  771 2.4006e+09 2.5021e+09  4.23%     - 1970s
H    0     0                    2.484364e+09 2.5021e+09  0.72%     - 3323s
H    0     0                    2.485595e+09 2.5021e+09  0.67%     - 4549s
     0     0 2.5021e+09    0  768 2.4856e+09 2.5021e+09  0.67%     - 4550s
     0     0 2.5021e+09    0  881 2.4856e+09 2.5021e+09  0.66%     - 4953s
     0     0 2.5021e+09    0  821 2.4856e+09 2.5021e+09  0.66%     - 7204s
     0     0 2.5021e+09    0  808 2.4856e+09 2.5021e+09  0.66%     - 7235s
     0     0 2.5021e+09    0  816 2.4856e+09 2.5021e+09  0.66%     - 7244s
     0     0 2.5021e+09    0  816 2.4856e+09 2.5021e+09  0.66%     - 7246s
     0     0 2.5021e+09    0  811 2.4856e+09 2.5021e+09  0.66%     - 7248s
     0     0 2.5021e+09    0  815 2.4856e+09 2.5021e+09  0.66%     - 7251s
     0     0 2.5021e+09    0  831 2.4856e+09 2.5021e+09  0.66%     - 7437s
     0     0 2.5021e+09    0  846 2.4856e+09 2.5021e+09  0.66%     - 10064s
     0     0 2.5021e+09    0  842 2.4856e+09 2.5021e+09  0.66%     - 10073s
     0     0 2.5020e+09    0  854 2.4856e+09 2.5020e+09  0.66%     - 10386s
     0     0 2.5020e+09    0  852 2.4856e+09 2.5020e+09  0.66%     - 10386s
     0     0 2.5020e+09    0  839 2.4856e+09 2.5020e+09  0.66%     - 10391s

Cutting planes:
  Cover: 21
  Implied bound: 31
  Clique: 1
  MIR: 24
  Flow cover: 23
  GUB cover: 1
  Network: 11
  RLT: 11
  Relax-and-lift: 17

Explored 1 nodes (178676 simplex iterations) in 10800.21 seconds (17193.60 work units)
Thread count was 16 (of 16 available processors)

Solution count 3: 2.4856e+09 2.48436e+09 2.40056e+09 

Time limit reached
Best objective 2.485595293290e+09, best bound 2.502006810987e+09, gap 0.6603%
